g3 0 1 0	# problem brybnd
 10 0 1 0 0	# vars, constraints, objectives, ranges, eqns
 0 1	# nonlinear constraints, objectives
 0 0	# network constraints: nonlinear, linear
 0 10 0	# nonlinear vars in constraints, objectives, both
 0 0 0 1	# linear network variables; functions; arith, flags
 0 0 0 0 0	# discrete variables: binary, integer, nonlinear (b,c,o)
 0 10	# nonzeros in Jacobian, gradients
 0 0	# max name lengths: constraints, variables
 0 0 0 0 0	# common exprs: b,c,o,c1,o1
O0 0
o54
10
o5
o1
o0
n1
o2
v0
o0
n2
o2
n5
o5
v0
n2
o2
v1
o0
n1
v1
n2
o5
o1
o0
n1
o2
v1
o0
n2
o2
n5
o5
v1
n2
o0
o2
v0
o0
n1
v0
o2
v2
o0
n1
v2
n2
o5
o1
o0
n1
o2
v2
o0
n2
o2
n5
o5
v2
n2
o54
3
o2
v0
o0
n1
v0
o2
v1
o0
n1
v1
o2
v3
o0
n1
v3
n2
o5
o1
o0
n1
o2
v3
o0
n2
o2
n5
o5
v3
n2
o54
4
o2
v0
o0
n1
v0
o2
v1
o0
n1
v1
o2
v2
o0
n1
v2
o2
v4
o0
n1
v4
n2
o5
o1
o0
n1
o2
v4
o0
n2
o2
n5
o5
v4
n2
o54
5
o2
v0
o0
n1
v0
o2
v1
o0
n1
v1
o2
v2
o0
n1
v2
o2
v3
o0
n1
v3
o2
v5
o0
n1
v5
n2
o5
o1
o0
n1
o2
v5
o0
n2
o2
n5
o5
v5
n2
o54
6
o2
v0
o0
n1
v0
o2
v1
o0
n1
v1
o2
v2
o0
n1
v2
o2
v3
o0
n1
v3
o2
v4
o0
n1
v4
o2
v6
o0
n1
v6
n2
o5
o1
o0
n1
o2
v6
o0
n2
o2
n5
o5
v6
n2
o54
6
o2
v1
o0
n1
v1
o2
v2
o0
n1
v2
o2
v3
o0
n1
v3
o2
v4
o0
n1
v4
o2
v5
o0
n1
v5
o2
v7
o0
n1
v7
n2
o5
o1
o0
n1
o2
v7
o0
n2
o2
n5
o5
v7
n2
o54
6
o2
v2
o0
n1
v2
o2
v3
o0
n1
v3
o2
v4
o0
n1
v4
o2
v5
o0
n1
v5
o2
v6
o0
n1
v6
o2
v8
o0
n1
v8
n2
o5
o1
o0
n1
o2
v8
o0
n2
o2
n5
o5
v8
n2
o54
6
o2
v3
o0
n1
v3
o2
v4
o0
n1
v4
o2
v5
o0
n1
v5
o2
v6
o0
n1
v6
o2
v7
o0
n1
v7
o2
v9
o0
n1
v9
n2
o5
o1
o0
n1
o2
v9
o0
n2
o2
n5
o5
v9
n2
o54
5
o2
v4
o0
n1
v4
o2
v5
o0
n1
v5
o2
v6
o0
n1
v6
o2
v7
o0
n1
v7
o2
v8
o0
n1
v8
n2
x10
0 -1
1 -1
2 -1
3 -1
4 -1
5 -1
6 -1
7 -1
8 -1
9 -1
b
3
3
3
3
3
3
3
3
3
3
k9
0
0
0
0
0
0
0
0
0
G0 10
0 0
1 0
2 0
3 0
4 0
5 0
6 0
7 0
8 0
9 0
